5 5
1 93 4 80 2 30 3 49 0 98
0 94 4 21 2 22 3 47 1 25
3 86 4 56 0 64 2 28 1 33
4 66 0 4 3 80 2 12 1 17
2 36 4 16 3 23 0 72 1 9
-1
0 1 2 4 5
0 2 3 5
0 1 4 5
0 2 4 5
0 1 2 3 5
-2
103 183 267 411
176 195 234
111 248 290
78 208 191
48 83 103 226

391 9
5 16 23 12 4
0 24 19 14 9
20 2 18 7 13
10 22 17 3 8
15 21 1 11 6
